NAME: random-45-14415
TYPE: TSP
COMMENT: size=45 seed=14415
DIMENSION: 92
EDGE_WEIGHT_TYPE: EUC_2D
NODE_COORD_SECTION
+0 905 623
-0 905 623
+1 637 948
-1 94 475
+2 621 204
-2 984 386
+3 414 224
-3 415 900
+4 627 365
-4 278 919
+5 99 482
-5 205 591
+6 941 230
-6 810 748
+7 228 796
-7 321 201
+8 879 257
-8 480 738
+9 292 594
-9 890 613
+10 338 419
-10 296 667
+11 298 766
-11 685 574
+12 153 525
-12 712 253
+13 551 346
-13 54 550
+14 49 807
-14 368 914
+15 750 406
-15 861 54
+16 781 355
-16 563 691
+17 306 434
-17 271 676
+18 407 111
-18 483 792
+19 237 953
-19 256 641
+20 721 881
-20 519 87
+21 350 47
-21 611 628
+22 836 894
-22 453 540
+23 402 524
-23 640 372
+24 960 745
-24 116 171
+25 900 240
-25 885 830
+26 750 290
-26 253 783
+27 522 465
-27 898 323
+28 57 792
-28 996 384
+29 889 883
-29 326 620
+30 683 329
-30 689 436
+31 536 616
-31 102 624
+32 761 911
-32 35 322
+33 981 393
-33 338 632
+34 84 958
-34 257 279
+35 468 381
-35 918 310
+36 62 726
-36 132 264
+37 827 963
-37 597 132
+38 473 672
-38 563 255
+39 513 11
-39 455 618
+40 961 41
-40 78 487
+41 147 951
-41 191 851
+42 164 252
-42 313 908
+43 429 584
-43 732 748
+44 641 276
-44 562 744
+45 189 262
-45 860 475
PRECEDENCE_SECTION
+0 -0
+1 -1
+2 -2
+3 -3
+4 -4
+5 -5
+6 -6
+7 -7
+8 -8
+9 -9
+10 -10
+11 -11
+12 -12
+13 -13
+14 -14
+15 -15
+16 -16
+17 -17
+18 -18
+19 -19
+20 -20
+21 -21
+22 -22
+23 -23
+24 -24
+25 -25
+26 -26
+27 -27
+28 -28
+29 -29
+30 -30
+31 -31
+32 -32
+33 -33
+34 -34
+35 -35
+36 -36
+37 -37
+38 -38
+39 -39
+40 -40
+41 -41
+42 -42
+43 -43
+44 -44
+45 -45
EOF
